c Random Network
p max    10      20
n         1  s
n        10  t
a       1       2      43
a       2       3      32
a       6       9      22
a       9       4      28
a       6       4      49
a       9       8      49
a       5       4      32
a       3       2      11
a       9       2      13
a       2      10      19
a       9       7      22
a      10       3      32
a       2       1       3
a       6       7      26
a       7       1       5
a       1       7      10
a       4       6      10
a       7       6      46
a       6       1       9
a       4       3      25
